34 1000
6 116
8 130
2 181
10 194
9 194
9 187
6 189
6 134
4 168
5 189
10 191
9 189
9 125
5 200
11 189
8 140
11 163
6 163
11 116
5 181
5 134
7 140
6 191
3 168
3 125
2 187
6 140
10 120
11 130
6 200
5 140
9 140
8 140
7 120
